
--- Job MainPowerFlow.gms Start 10/21/15 10:50:26 24.5.3 r54322 WEX-WEI x86 64bit/MS Windows
GAMS 24.5.3   Copyright (C) 1987-2015 GAMS Development. All rights reserved
Licensee: Course License, Introduction to Decision Suppo G150929:0359AO-GEN
          TU Delft, Faculteit Elektrotechniek, Wiskunde en InformatiDC12029
          License for teaching and research at degree granting institutions
--- Starting compilation
--- MainPowerFlow.gms(35) 2 Mb
--- .indices.inc(18) 3 Mb
--- MainPowerFlow.gms(39) 3 Mb
--- .Resistive_Network.inc(43) 3 Mb
--- MainPowerFlow.gms(43) 3 Mb
--- .CSources.inc(43) 3 Mb
--- MainPowerFlow.gms(47) 3 Mb
--- .CPload.inc(43) 3 Mb
--- MainPowerFlow.gms(51) 3 Mb
--- .CVref.inc(43) 3 Mb
--- MainPowerFlow.gms(55) 3 Mb
--- .DCVref.inc(43) 3 Mb
--- MainPowerFlow.gms(59) 3 Mb
--- .G_Droop.inc(43) 3 Mb
--- MainPowerFlow.gms(146) 3 Mb
--- Starting execution: elapsed 0:00:00.010
--- MainPowerFlow.gms(394) 4 Mb
--- Generating LP model PowerFlow
--- MainPowerFlow.gms(411) 4 Mb
---   19 rows  19 columns  43 non-zeroes
--- Executing CPLEX: elapsed 0:00:00.056

IBM ILOG CPLEX   24.5.3 r54322 Released Oct  1, 2015 WEI x86 64bit/MS Windows 
Cplex 12.6.2.0

Reading data...
Starting Cplex...
Space for names approximately 0.00 Mb
Use option 'names no' to turn use of names off
Tried aggregator 1 time.
LP Presolve eliminated 10 rows and 10 columns.
Aggregator did 6 substitutions.
Reduced LP has 3 rows, 3 columns, and 7 nonzeros.
Presolve time = 0.00 sec. (0.01 ticks)
Initializing dual steep norms . . .

Iteration      Dual Objective            In Variable           Out Variable
     1               0.000000                  V(n3) NodalCurrent(n1) artif
LP status(1): optimal
Cplex Time: 0.00sec (det. 0.02 ticks)

Optimal solution found.
Objective :           0.000000

--- Restarting execution
--- MainPowerFlow.gms(411) 2 Mb
--- Reading solution for model PowerFlow
--- Executing after solve: elapsed 0:00:00.132
--- MainPowerFlow.gms(413) 3 Mb
*** Status: Normal completion
--- Job MainPowerFlow.gms Stop 10/21/15 10:50:27 elapsed 0:00:00.136
